20	5
0	9	9	3	2	8	5	4	1	7	6
1	4	12	10	17	15
2	3	12	17	15
3	3	17	19	20
4	4	20	18	17	11
5	4	17	13	12	15
6	3	17	15	14
7	3	19	18	20
8	2	12	15
9	4	17	12	20	16
10	2	18	13
11	1	19
12	2	11	18
13	2	16	20
14	1	10
15	1	18
16	1	11
17	1	21
18	1	21
19	1	21
20	1	21
21	0
0	0	0	0	0	0	0
1	9	0	5	0	0	2
2	10	4	3	2	0	3
3	4	0	3	0	4	1
4	10	3	0	0	5	0
5	10	5	3	3	0	0
6	4	2	3	4	4	5
7	2	3	2	2	0	0
8	8	5	1	3	1	1
9	6	1	5	2	1	2
10	1	5	0	3	1	0
11	10	0	3	5	0	4
12	10	2	5	5	5	4
13	10	4	0	1	4	0
14	6	1	4	0	1	1
15	7	0	1	1	5	4
16	4	2	3	5	2	2
17	3	4	5	2	1	2
18	9	4	0	0	3	5
19	7	3	5	2	3	2
20	9	0	3	1	4	0
21	0	0	0	0	0	0
10	10	8	8	7
